MMBP/Data_G_FJSP_Version/p13.fjs
50 17 1
6.0 2.0 1.0 1.0 2.0 1.0 3.0 3.0 1.45 4.0 1.45 5.0 2.331 3.0 6.0 1.815 7.0 2.245 8.0 2.245 1.0 11.0 0.642 3.0 12.0 0.25 13.0 0.42 14.0 0.42 3.0 15.0 2.202 16.0 2.202 17.0 0.629
6.0 2.0 1.0 1.0 2.0 1.0 2.0 3.0 1.45 4.0 1.45 3.0 6.0 1.0 7.0 1.0 8.0 1.0 1.0 11.0 0.766 3.0 12.0 0.25 13.0 0.42 14.0 0.42 3.0 15.0 2.626 16.0 2.626 17.0 0.75
6.0 2.0 1.0 1.0 2.0 1.0 2.0 3.0 1.45 4.0 1.45 3.0 6.0 1.0 7.0 1.0 8.0 1.0 2.0 9.0 0.371 10.0 0.371 3.0 12.0 0.75 13.0 1.26 14.0 1.26 3.0 15.0 0.364 16.0 0.364 17.0 0.104
6.0 2.0 1.0 1.0 2.0 1.0 2.0 3.0 1.45 4.0 1.45 3.0 6.0 1.0 7.0 1.0 8.0 1.0 1.0 11.0 0.648 3.0 12.0 0.5 13.0 0.84 14.0 0.84 3.0 15.0 2.222 16.0 2.222 17.0 0.635
6.0 2.0 1.0 1.0 2.0 1.0 2.0 3.0 1.45 4.0 1.45 3.0 6.0 1.0 7.0 1.0 8.0 1.0 2.0 9.0 0.247 10.0 0.247 3.0 12.0 0.25 13.0 0.42 14.0 0.42 3.0 15.0 0.242 16.0 0.242 17.0 0.069
6.0 2.0 1.0 1.0 2.0 1.0 2.0 3.0 1.45 4.0 1.45 3.0 6.0 1.0 7.0 1.0 8.0 1.0 3.0 9.0 2.267 10.0 2.267 11.0 0.648 3.0 12.0 0.25 13.0 0.42 14.0 0.42 3.0 15.0 2.222 16.0 2.222 17.0 0.635
6.0 2.0 1.0 1.0 2.0 1.0 2.0 3.0 1.45 4.0 1.45 3.0 6.0 1.0 7.0 1.0 8.0 1.0 1.0 11.0 0.118 3.0 12.0 0.25 13.0 0.42 14.0 0.42 3.0 15.0 0.404 16.0 0.404 17.0 0.115
6.0 2.0 1.0 1.0 2.0 1.0 3.0 3.0 1.45 4.0 1.45 5.0 2.331 3.0 6.0 1.815 7.0 2.245 8.0 2.245 2.0 10.0 0.412 11.0 0.118 3.0 12.0 0.75 13.0 1.26 14.0 1.26 3.0 15.0 0.404 16.0 0.404 17.0 0.115
6.0 2.0 1.0 1.0 2.0 1.0 2.0 3.0 1.45 4.0 1.45 3.0 6.0 1.0 7.0 1.0 8.0 1.0 1.0 11.0 0.112 3.0 12.0 0.75 13.0 1.26 14.0 1.26 3.0 15.0 0.384 16.0 0.384 17.0 0.11
6.0 2.0 1.0 1.0 2.0 1.0 2.0 3.0 1.45 4.0 1.45 3.0 6.0 1.0 7.0 1.0 8.0 1.0 1.0 11.0 0.294 3.0 12.0 0.5 13.0 0.84 14.0 0.84 3.0 15.0 1.01 16.0 1.01 17.0 0.289
6.0 2.0 1.0 1.0 2.0 1.0 2.0 3.0 1.45 4.0 1.45 3.0 6.0 1.0 7.0 1.0 8.0 1.0 1.0 11.0 0.883 3.0 12.0 0.5 13.0 0.84 14.0 0.84 3.0 15.0 3.03 16.0 3.03 17.0 0.866
6.0 2.0 1.0 1.0 2.0 1.0 3.0 3.0 1.45 4.0 1.45 5.0 2.331 3.0 6.0 1.815 7.0 2.245 8.0 2.245 1.0 10.0 2.061 3.0 12.0 0.5 13.0 0.84 14.0 0.84 3.0 15.0 2.02 16.0 2.02 17.0 0.577
6.0 2.0 1.0 1.0 2.0 1.0 3.0 3.0 1.45 4.0 1.45 5.0 2.331 3.0 6.0 1.815 7.0 2.245 8.0 2.245 1.0 10.0 0.824 3.0 12.0 0.25 13.0 0.42 14.0 0.42 3.0 15.0 0.808 16.0 0.808 17.0 0.231
6.0 2.0 1.0 1.0 2.0 1.0 2.0 3.0 1.45 4.0 1.45 3.0 6.0 1.0 7.0 1.0 8.0 1.0 3.0 9.0 0.392 10.0 0.392 11.0 0.112 3.0 12.0 0.5 13.0 0.84 14.0 0.84 3.0 15.0 0.384 16.0 0.384 17.0 0.11
6.0 2.0 1.0 1.0 2.0 1.0 2.0 3.0 1.45 4.0 1.45 3.0 6.0 1.0 7.0 1.0 8.0 1.0 3.0 9.0 2.267 10.0 2.267 11.0 0.648 3.0 12.0 0.5 13.0 0.84 14.0 0.84 3.0 15.0 2.222 16.0 2.222 17.0 0.635
6.0 2.0 1.0 1.0 2.0 1.0 3.0 3.0 1.45 4.0 1.45 5.0 2.331 3.0 6.0 1.815 7.0 2.245 8.0 2.245 1.0 11.0 0.236 3.0 12.0 0.5 13.0 0.84 14.0 0.84 3.0 15.0 0.808 16.0 0.808 17.0 0.231
6.0 2.0 1.0 1.0 2.0 1.0 3.0 3.0 1.45 4.0 1.45 5.0 2.331 3.0 6.0 1.815 7.0 2.245 8.0 2.245 2.0 9.0 1.237 10.0 1.237 3.0 12.0 0.5 13.0 0.84 14.0 0.84 3.0 15.0 1.212 16.0 1.212 17.0 0.346
6.0 2.0 1.0 1.0 2.0 1.0 2.0 3.0 1.45 4.0 1.45 3.0 6.0 1.0 7.0 1.0 8.0 1.0 1.0 11.0 0.707 3.0 12.0 0.5 13.0 0.84 14.0 0.84 3.0 15.0 2.424 16.0 2.424 17.0 0.693
6.0 2.0 1.0 1.0 2.0 1.0 2.0 3.0 1.45 4.0 1.45 3.0 6.0 1.0 7.0 1.0 8.0 1.0 1.0 11.0 0.624 3.0 12.0 0.5 13.0 0.84 14.0 0.84 3.0 15.0 2.141 16.0 2.141 17.0 0.612
6.0 2.0 1.0 1.0 2.0 1.0 3.0 3.0 1.45 4.0 1.45 5.0 2.331 3.0 6.0 1.815 7.0 2.245 8.0 2.245 2.0 10.0 0.371 11.0 0.106 3.0 12.0 0.75 13.0 1.26 14.0 1.26 3.0 15.0 0.364 16.0 0.364 17.0 0.104
6.0 2.0 1.0 1.0 2.0 1.0 2.0 3.0 1.45 4.0 1.45 3.0 6.0 1.0 7.0 2.245 8.0 2.245 1.0 10.0 0.309 3.0 12.0 0.75 13.0 1.26 14.0 1.26 3.0 15.0 0.303 16.0 0.303 17.0 0.087
6.0 2.0 1.0 1.0 2.0 1.0 2.0 3.0 1.45 4.0 1.45 3.0 6.0 1.0 7.0 1.0 8.0 1.0 1.0 11.0 0.601 3.0 12.0 0.75 13.0 1.26 14.0 1.26 3.0 15.0 2.061 16.0 2.061 17.0 0.589
6.0 2.0 1.0 1.0 2.0 1.0 3.0 3.0 1.45 4.0 1.45 5.0 2.331 3.0 6.0 1.815 7.0 2.245 8.0 2.245 2.0 10.0 2.267 11.0 0.648 3.0 12.0 0.75 13.0 1.26 14.0 1.26 3.0 15.0 2.222 16.0 2.222 17.0 0.635
6.0 2.0 1.0 1.0 2.0 1.0 2.0 3.0 1.45 4.0 1.45 3.0 6.0 1.0 7.0 2.245 8.0 2.245 2.0 10.0 2.473 11.0 0.707 3.0 12.0 0.25 13.0 0.42 14.0 0.42 3.0 15.0 2.424 16.0 2.424 17.0 0.693
6.0 2.0 1.0 1.0 2.0 1.0 2.0 3.0 1.45 4.0 1.45 3.0 6.0 1.0 7.0 1.0 8.0 1.0 1.0 10.0 1.237 3.0 12.0 0.75 13.0 1.26 14.0 1.26 3.0 15.0 1.212 16.0 1.212 17.0 0.346
6.0 2.0 1.0 1.0 2.0 1.0 3.0 3.0 1.45 4.0 1.45 5.0 2.331 3.0 6.0 1.815 7.0 2.245 8.0 2.245 2.0 10.0 2.164 11.0 0.618 3.0 12.0 0.5 13.0 0.84 14.0 0.84 3.0 15.0 2.121 16.0 2.121 17.0 0.606
6.0 2.0 1.0 1.0 2.0 1.0 2.0 3.0 1.45 4.0 1.45 3.0 6.0 1.0 7.0 2.245 8.0 2.245 2.0 10.0 2.267 11.0 0.648 3.0 12.0 0.25 13.0 0.42 14.0 0.42 3.0 15.0 2.222 16.0 2.222 17.0 0.635
6.0 2.0 1.0 1.0 2.0 1.0 2.0 3.0 1.45 4.0 1.45 3.0 6.0 1.0 7.0 1.0 8.0 1.0 1.0 11.0 0.118 3.0 12.0 0.25 13.0 0.42 14.0 0.42 3.0 15.0 0.404 16.0 0.404 17.0 0.115
6.0 2.0 1.0 1.0 2.0 1.0 2.0 3.0 1.45 4.0 1.45 3.0 6.0 1.0 7.0 1.0 8.0 1.0 2.0 9.0 1.855 10.0 1.855 3.0 12.0 0.25 13.0 0.42 14.0 0.42 3.0 15.0 1.818 16.0 1.818 17.0 0.519
6.0 2.0 1.0 1.0 2.0 1.0 2.0 3.0 1.45 4.0 1.45 3.0 6.0 1.0 7.0 1.0 8.0 1.0 1.0 10.0 3.71 3.0 12.0 0.25 13.0 0.42 14.0 0.42 3.0 15.0 3.636 16.0 3.636 17.0 1.039
6.0 2.0 1.0 1.0 2.0 1.0 2.0 3.0 1.45 4.0 1.45 3.0 6.0 1.0 7.0 1.0 8.0 1.0 3.0 9.0 0.0 10.0 0.0 11.0 1.06 3.0 12.0 0.75 13.0 1.26 14.0 1.26 3.0 15.0 3.636 16.0 3.636 17.0 1.039
6.0 2.0 1.0 1.0 2.0 1.0 3.0 3.0 1.45 4.0 1.45 5.0 1.61 3.0 6.0 1.815 7.0 2.245 8.0 2.245 3.0 9.0 0.0 10.0 2.082 11.0 0.595 3.0 12.0 0.5 13.0 0.84 14.0 0.84 3.0 15.0 2.04 16.0 2.04 17.0 0.583
6.0 2.0 1.0 1.0 2.0 1.0 3.0 3.0 1.45 4.0 1.45 5.0 1.61 3.0 6.0 1.815 7.0 2.245 8.0 2.245 3.0 9.0 0.0 10.0 0.0 11.0 0.612 3.0 12.0 0.25 13.0 0.42 14.0 0.42 3.0 15.0 2.101 16.0 2.101 17.0 0.6
6.0 2.0 1.0 1.0 2.0 1.0 3.0 3.0 1.45 4.0 1.45 5.0 1.61 3.0 6.0 1.0 7.0 1.0 8.0 1.0 3.0 9.0 0.0 10.0 2.164 11.0 0.618 3.0 12.0 0.25 13.0 0.42 14.0 0.42 3.0 15.0 2.121 16.0 2.121 17.0 0.606
6.0 2.0 1.0 1.0 2.0 1.0 3.0 3.0 1.45 4.0 1.45 5.0 1.61 3.0 6.0 1.815 7.0 2.245 8.0 2.245 3.0 9.0 0.0 10.0 1.855 11.0 0.0 3.0 12.0 0.5 13.0 0.84 14.0 0.84 3.0 15.0 1.818 16.0 1.818 17.0 0.519
6.0 2.0 1.0 1.0 2.0 1.0 3.0 3.0 1.45 4.0 1.45 5.0 1.61 3.0 6.0 1.0 7.0 1.0 8.0 1.0 3.0 9.0 0.824 10.0 0.824 11.0 0.0 3.0 12.0 0.5 13.0 0.84 14.0 0.84 3.0 15.0 0.808 16.0 0.808 17.0 0.231
6.0 2.0 1.0 1.0 2.0 1.0 3.0 3.0 1.45 4.0 1.45 5.0 1.61 3.0 6.0 1.0 7.0 1.0 8.0 1.0 3.0 9.0 0.0 10.0 3.71 11.0 1.06 3.0 12.0 0.75 13.0 1.26 14.0 1.26 3.0 15.0 3.636 16.0 3.636 17.0 1.039
6.0 2.0 1.0 1.0 2.0 1.0 3.0 3.0 1.45 4.0 1.45 5.0 1.61 3.0 6.0 1.815 7.0 2.245 8.0 2.245 3.0 9.0 0.0 10.0 2.267 11.0 0.0 3.0 12.0 0.25 13.0 0.42 14.0 0.42 3.0 15.0 2.222 16.0 2.222 17.0 0.635
6.0 2.0 1.0 1.0 2.0 1.0 3.0 3.0 1.45 4.0 1.45 5.0 1.61 3.0 6.0 1.0 7.0 1.0 8.0 1.0 3.0 9.0 0.0 10.0 3.71 11.0 1.06 3.0 12.0 0.75 13.0 1.26 14.0 1.26 3.0 15.0 3.636 16.0 3.636 17.0 1.039
6.0 2.0 1.0 1.0 2.0 1.0 3.0 3.0 1.45 4.0 1.45 5.0 1.61 3.0 6.0 1.0 7.0 1.0 8.0 1.0 3.0 9.0 0.0 10.0 0.309 11.0 0.088 3.0 12.0 0.5 13.0 0.84 14.0 0.84 3.0 15.0 0.303 16.0 0.303 17.0 0.087
6.0 2.0 1.0 1.0 2.0 1.0 3.0 3.0 1.45 4.0 1.45 5.0 1.61 3.0 6.0 1.0 7.0 1.0 8.0 1.0 3.0 9.0 0.0 10.0 0.0 11.0 0.118 3.0 12.0 0.25 13.0 0.42 14.0 0.42 3.0 15.0 0.404 16.0 0.404 17.0 0.115
6.0 2.0 1.0 1.0 2.0 1.0 3.0 3.0 1.45 4.0 1.45 5.0 1.61 3.0 6.0 1.0 7.0 1.0 8.0 1.0 3.0 9.0 2.267 10.0 2.267 11.0 0.0 3.0 12.0 0.5 13.0 0.84 14.0 0.84 3.0 15.0 2.222 16.0 2.222 17.0 0.635
6.0 2.0 1.0 1.0 2.0 1.0 3.0 3.0 1.45 4.0 1.45 5.0 1.61 3.0 6.0 1.0 7.0 1.0 8.0 1.0 3.0 9.0 0.0 10.0 2.267 11.0 0.0 3.0 12.0 0.5 13.0 0.84 14.0 0.84 3.0 15.0 2.222 16.0 2.222 17.0 0.635
6.0 2.0 1.0 1.0 2.0 1.0 3.0 3.0 1.45 4.0 1.45 5.0 1.61 3.0 6.0 1.815 7.0 2.245 8.0 2.245 3.0 9.0 2.144 10.0 2.144 11.0 0.0 3.0 12.0 0.75 13.0 1.26 14.0 1.26 3.0 15.0 2.101 16.0 2.101 17.0 0.6
6.0 2.0 1.0 1.0 2.0 1.0 3.0 3.0 1.45 4.0 1.45 5.0 1.61 3.0 6.0 1.0 7.0 1.0 8.0 1.0 3.0 9.0 0.0 10.0 0.0 11.0 0.082 3.0 12.0 0.75 13.0 1.26 14.0 1.26 3.0 15.0 0.283 16.0 0.283 17.0 0.081
6.0 2.0 1.0 1.0 2.0 1.0 3.0 3.0 1.45 4.0 1.45 5.0 1.61 3.0 6.0 1.815 7.0 2.245 8.0 2.245 3.0 9.0 0.0 10.0 0.0 11.0 0.294 3.0 12.0 0.5 13.0 0.84 14.0 0.84 3.0 15.0 1.01 16.0 1.01 17.0 0.289
6.0 2.0 1.0 1.0 2.0 1.0 3.0 3.0 1.45 4.0 1.45 5.0 1.61 3.0 6.0 1.815 7.0 2.245 8.0 2.245 3.0 9.0 0.0 10.0 0.289 11.0 0.082 3.0 12.0 0.25 13.0 0.42 14.0 0.42 3.0 15.0 0.283 16.0 0.283 17.0 0.081
6.0 2.0 1.0 1.0 2.0 1.0 3.0 3.0 1.45 4.0 1.45 5.0 1.61 3.0 6.0 1.0 7.0 1.0 8.0 1.0 3.0 9.0 0.289 10.0 0.289 11.0 0.0 3.0 12.0 0.75 13.0 1.26 14.0 1.26 3.0 15.0 0.283 16.0 0.283 17.0 0.081
6.0 2.0 1.0 1.0 2.0 1.0 3.0 3.0 1.45 4.0 1.45 5.0 1.61 3.0 6.0 1.815 7.0 2.245 8.0 2.245 3.0 9.0 0.0 10.0 0.0 11.0 0.648 3.0 12.0 0.75 13.0 1.26 14.0 1.26 3.0 15.0 2.222 16.0 2.222 17.0 0.635
6.0 2.0 1.0 1.0 2.0 1.0 3.0 3.0 1.45 4.0 1.45 5.0 1.61 3.0 6.0 1.815 7.0 2.245 8.0 2.245 3.0 9.0 0.0 10.0 2.267 11.0 0.0 3.0 12.0 0.75 13.0 1.26 14.0 1.26 3.0 15.0 2.222 16.0 2.222 17.0 0.635
